0 0 0 0
0 1 0 0
0 2 0 0
0 3 1 0
0 4 0 2
0 5 1 4
0 6 1 7
0 7 0 6
0 8 0 9
0 9 2 15
0 10 1 1
0 11 1 9
0 12 1 11
0 13 0 7
0 14 1 7
0 15 0 4
0 16 2 18
0 17 0 14
0 18 1 9
0 19 0 2
0 20 1 14
0 21 1 23
0 22 2 15
0 23 1 15
0 24 0 17
0 25 0 25
0 26 2 11
0 27 0 26
0 28 0 28
0 29 2 22
0 30 0 28
0 31 0 33
